NAME : A-n32-k5
COMMENT : (Augerat et al, Min no of trucks: 5, Optimal value: 784)
TYPE : CVRP
DIMENSION : 32
EDGE_WEIGHT_TYPE : EUC_2D
CAPACITY : 100
NODE_COORD_SECTION
1 82 76
2 96 44
3 50 5
4 49 8
5 13 7
6 29 89
7 58 30
8 84 39
9 14 24
10 2 39
11 3 82
12 5 10
13 98 52
14 84 25
15 61 59
16 1 65
17 88 51
18 91 2
19 19 32
20 93 3
21 11 94
22 5 79
23 48 21
24 62 84
25 66 14
26 18 100
27 34 84
28 32 30
29 5 16
30 4 73
31 38 67
32 40 26
DEMAND_SECTION
1 0
2 19
3 21
4 6
5 19
6 7
7 12
8 16
9 6
10 16
11 8
12 14
13 21
14 16
15 3
16 22
17 18
18 19
19 1
20 24
21 8
22 12
23 4
24 8
25 24
26 24
27 2
28 10
29 15
30 2
31 18
32 11
DEPOT_SECTION
1
-1
EOF
