NAME : A-n33-k5
COMMENT : (Augerat et al, Min no of trucks: 5, Optimal value: 661)
TYPE : CVRP
DIMENSION : 33
EDGE_WEIGHT_TYPE : EUC_2D
CAPACITY : 100
NODE_COORD_SECTION
1 48 38
2 32 58
3 50 78
4 76 68
5 70 42
6 54 28
7 32 18
8 18 36
9 24 50
10 38 72
11 62 82
12 80 54
13 74 24
14 58 10
15 38 6
16 20 20
17 12 56
18 26 84
19 50 92
20 86 78
21 92 46
22 84 14
23 64 2
24 40 2
25 18 12
26 4 40
27 8 74
28 24 94
29 46 98
30 78 94
31 96 66
32 94 30
33 78 4
DEMAND_SECTION
1 0
2 12
3 18
4 14
5 15
6 17
7 19
8 10
9 11
10 16
11 13
12 18
13 14
14 12
15 15
16 11
17 19
18 16
19 14
20 18
21 15
22 12
23 16
24 10
25 14
26 18
27 12
28 15
29 11
30 17
31 13
32 16
33 14
DEPOT_SECTION
1
-1
EOF
