NAME : A-n44-k6
COMMENT : (Augerat et al, Min no of trucks: 6, Optimal value: 937)
TYPE : CVRP
DIMENSION : 44
EDGE_WEIGHT_TYPE : EUC_2D
CAPACITY : 100
NODE_COORD_SECTION
1 55 85
2 64 75
3 54 62
4 42 65
5 38 72
6 32 64
7 25 52
8 18 40
9 22 28
10 32 20
11 45 22
12 55 35
13 62 48
14 70 58
15 78 62
16 85 70
17 80 82
18 68 90
19 45 92
20 28 85
21 15 72
22 8 55
23 10 35
24 16 18
25 28 8
26 44 6
27 60 10
28 72 20
29 82 35
30 90 50
31 92 68
32 88 84
33 74 95
34 58 98
35 38 98
36 20 92
37 6 78
38 2 50
39 4 25
40 12 10
41 32 2
42 52 2
43 72 4
44 88 12
DEMAND_SECTION
1 0
2 18
3 12
4 15
5 14
6 16
7 19
8 11
9 10
10 14
11 15
12 18
13 13
14 17
15 12
16 16
17 14
18 11
19 15
20 18
21 12
22 16
23 14
24 19
25 13
26 17
27 11
28 15
29 18
30 12
31 16
32 14
33 10
34 19
35 15
36 12
37 18
38 14
39 16
40 11
41 15
42 17
43 13
44 14
DEPOT_SECTION
1
-1
EOF
