NAME : A-n53-k7
COMMENT : (Augerat et al, Min no of trucks: 7, Optimal value: 1010)
TYPE : CVRP
DIMENSION : 53
EDGE_WEIGHT_TYPE : EUC_2D
CAPACITY : 100
NODE_COORD_SECTION
1 50 50
2 84 56
3 72 40
4 60 30
5 45 22
6 30 18
7 20 30
8 16 45
9 22 62
10 35 75
11 52 82
12 68 78
13 80 68
14 90 52
15 88 35
16 75 22
17 60 12
18 42 8
19 25 10
20 12 22
21 6 40
22 10 58
23 20 74
24 38 88
25 58 92
26 76 88
27 88 78
28 95 62
29 94 42
30 84 22
31 68 8
32 50 4
33 32 4
34 15 8
35 4 25
36 2 48
37 5 70
38 18 86
39 36 96
40 55 98
41 74 96
42 90 88
43 98 72
44 98 50
45 92 30
46 80 14
47 62 2
48 42 2
49 22 4
50 8 16
51 0 35
52 0 62
53 10 82
DEMAND_SECTION
1 0
2 15
3 18
4 12
5 14
6 16
7 11
8 19
9 13
10 17
11 10
12 15
13 18
14 12
15 16
16 14
17 19
18 11
19 13
20 17
21 15
22 18
23 12
24 14
25 16
26 10
27 19
28 13
29 17
30 15
31 11
32 18
33 12
34 14
35 16
36 19
37 13
38 17
39 10
40 15
41 18
42 12
43 16
44 14
45 19
46 11
47 13
48 17
49 15
50 18
51 12
52 14
53 16
DEPOT_SECTION
1
-1
EOF
