NAME : A-n60-k9
COMMENT : (Augerat et al, Min no of trucks: 9, Optimal value: 1354)
TYPE : CVRP
DIMENSION : 60
EDGE_WEIGHT_TYPE : EUC_2D
CAPACITY : 100
NODE_COORD_SECTION
1 50 50
2 52 23
3 72 78
4 7 42
5 61 43
6 45 70
7 36 24
8 86 63
9 7 68
10 56 36
11 57 72
12 22 34
13 90 41
14 22 90
15 48 33
16 70 67
17 16 52
18 80 20
19 48 101
20 37 35
21 78 54
22 20 71
23 60 6
24 77 97
25 29 43
26 78 37
27 35 86
28 34 5
29 100 76
30 26 56
31 68 22
32 57 91
33 10 19
34 109 45
35 31 70
36 50 14
37 80 83
38 -3 45
39 99 13
40 45 80
41 29 18
42 95 62
43 1 76
44 72 -10
45 62 80
46 13 33
47 97 35
48 21 100
49 36 -15
50 79 70
51 7 56
52 83 10
53 53 110
54 1 1
55 87 52
56 15 80
57 57 -4
58 86 102
59 -20 35
60 85 30
DEMAND_SECTION
1 0
2 22
3 12
4 19
5 9
6 16
7 23
8 13
9 20
10 10
11 17
12 24
13 14
14 21
15 11
16 18
17 8
18 15
19 22
20 12
21 19
22 9
23 16
24 23
25 13
26 20
27 10
28 17
29 24
30 14
31 21
32 11
33 18
34 8
35 15
36 22
37 12
38 19
39 9
40 16
41 23
42 13
43 20
44 10
45 17
46 24
47 14
48 21
49 11
50 18
51 8
52 15
53 22
54 12
55 19
56 9
57 16
58 23
59 13
60 20
DEPOT_SECTION
1
-1
EOF
